benchmarks_CP/INST_36x36/30/inst36x36_30_15.dzn
S=6;
start=[|
-1,	-1,	-1,	-1,	-1,	14,	-1,	-1,	-1,	-1,	-1,	8,	-1,	36,	-1,	31,	-1,	-1,	7,	-1,	-1,	-1,	-1,	-1,	21,	-1,	-1,	5,	-1,	-1,	-1,	-1,	-1,	-1,	-1,	34|
-1,	24,	-1,	-1,	-1,	-1,	-1,	10,	14,	-1,	-1,	-1,	-1,	-1,	-1,	-1,	-1,	-1,	-1,	1,	2,	-1,	-1,	-1,	-1,	-1,	17,	15,	-1,	-1,	-1,	-1,	28,	-1,	-1,	-1|
5,	-1,	-1,	-1,	-1,	-1,	12,	-1,	-1,	-1,	-1,	-1,	14,	15,	-1,	20,	-1,	-1,	-1,	17,	19,	-1,	-1,	21,	-1,	-1,	-1,	-1,	-1,	3,	-1,	-1,	-1,	-1,	-1,	2|
27,	34,	-1,	2,	-1,	-1,	33,	29,	-1,	-1,	-1,	-1,	-1,	-1,	-1,	-1,	-1,	18,	-1,	30,	-1,	-1,	-1,	-1,	24,	19,	-1,	-1,	-1,	-1,	-1,	13,	5,	21,	3,	-1|
-1,	-1,	20,	-1,	-1,	-1,	-1,	21,	11,	30,	34,	-1,	-1,	-1,	-1,	-1,	-1,	-1,	25,	15,	-1,	9,	-1,	32,	29,	-1,	-1,	12,	31,	-1,	-1,	19,	26,	10,	-1,	-1|
12,	16,	-1,	-1,	-1,	-1,	-1,	-1,	-1,	-1,	-1,	4,	-1,	-1,	26,	-1,	-1,	1,	-1,	-1,	-1,	3,	-1,	-1,	13,	36,	10,	2,	14,	-1,	15,	-1,	27,	-1,	-1,	6|
-1,	-1,	-1,	-1,	-1,	-1,	-1,	-1,	-1,	-1,	-1,	-1,	12,	16,	35,	-1,	-1,	-1,	-1,	23,	-1,	-1,	25,	-1,	17,	4,	-1,	-1,	-1,	-1,	3,	-1,	-1,	-1,	27,	30|
-1,	7,	-1,	1,	-1,	-1,	16,	2,	-1,	-1,	-1,	-1,	8,	-1,	-1,	-1,	3,	20,	13,	12,	-1,	29,	35,	-1,	-1,	31,	-1,	-1,	19,	25,	-1,	-1,	-1,	-1,	-1,	-1|
-1,	-1,	26,	-1,	13,	-1,	-1,	27,	-1,	-1,	9,	-1,	-1,	-1,	-1,	28,	-1,	-1,	-1,	-1,	-1,	-1,	1,	19,	-1,	-1,	7,	24,	-1,	-1,	-1,	-1,	-1,	15,	-1,	-1|
-1,	-1,	4,	-1,	-1,	-1,	-1,	-1,	-1,	12,	35,	-1,	-1,	2,	-1,	21,	-1,	22,	-1,	-1,	-1,	-1,	24,	-1,	-1,	-1,	-1,	-1,	-1,	-1,	-1,	-1,	-1,	19,	-1,	-1|
-1,	-1,	-1,	19,	-1,	-1,	-1,	-1,	-1,	26,	-1,	18,	-1,	1,	6,	-1,	-1,	-1,	-1,	-1,	9,	-1,	-1,	34,	-1,	-1,	35,	22,	-1,	-1,	-1,	16,	-1,	-1,	-1,	-1|
-1,	-1,	-1,	-1,	22,	-1,	-1,	-1,	-1,	-1,	24,	-1,	-1,	-1,	9,	-1,	-1,	-1,	-1,	5,	-1,	17,	-1,	-1,	-1,	8,	-1,	-1,	-1,	-1,	-1,	-1,	-1,	-1,	-1,	-1|
8,	-1,	-1,	35,	29,	7,	-1,	-1,	-1,	-1,	-1,	-1,	-1,	20,	-1,	-1,	-1,	-1,	-1,	-1,	15,	-1,	23,	1,	-1,	-1,	-1,	27,	18,	-1,	-1,	-1,	-1,	-1,	-1,	3|
-1,	-1,	-1,	-1,	34,	-1,	-1,	-1,	-1,	27,	-1,	35,	-1,	10,	22,	-1,	-1,	13,	28,	-1,	-1,	5,	2,	-1,	19,	-1,	-1,	23,	-1,	-1,	12,	-1,	-1,	-1,	-1,	-1|
15,	25,	2,	-1,	21,	-1,	-1,	36,	-1,	-1,	-1,	-1,	-1,	-1,	-1,	32,	-1,	8,	-1,	-1,	22,	24,	-1,	-1,	20,	10,	28,	4,	29,	-1,	34,	-1,	-1,	-1,	-1,	-1|
28,	-1,	-1,	36,	-1,	-1,	8,	-1,	-1,	-1,	-1,	30,	25,	35,	-1,	-1,	-1,	11,	-1,	-1,	13,	-1,	3,	16,	-1,	-1,	-1,	-1,	7,	-1,	-1,	32,	-1,	-1,	-1,	-1|
-1,	-1,	-1,	9,	-1,	-1,	-1,	-1,	5,	-1,	-1,	-1,	24,	-1,	-1,	-1,	15,	-1,	36,	-1,	-1,	-1,	-1,	-1,	3,	-1,	-1,	-1,	-1,	-1,	1,	-1,	-1,	-1,	-1,	-1|
-1,	13,	23,	-1,	-1,	-1,	4,	-1,	-1,	-1,	-1,	-1,	6,	3,	-1,	-1,	-1,	29,	-1,	-1,	-1,	-1,	-1,	-1,	35,	-1,	30,	-1,	-1,	-1,	-1,	-1,	31,	7,	24,	27|
-1,	26,	-1,	-1,	24,	20,	-1,	-1,	-1,	-1,	-1,	-1,	-1,	-1,	-1,	-1,	33,	10,	-1,	-1,	-1,	-1,	-1,	-1,	-1,	-1,	11,	-1,	-1,	-1,	-1,	-1,	-1,	8,	-1,	-1|
-1,	-1,	-1,	-1,	-1,	-1,	-1,	-1,	-1,	-1,	1,	28,	-1,	-1,	-1,	-1,	-1,	2,	-1,	-1,	-1,	23,	-1,	-1,	16,	-1,	-1,	-1,	-1,	35,	29,	-1,	-1,	-1,	-1,	-1|
-1,	-1,	-1,	-1,	-1,	17,	-1,	-1,	-1,	-1,	-1,	-1,	-1,	31,	-1,	-1,	-1,	-1,	-1,	25,	-1,	-1,	-1,	-1,	-1,	-1,	14,	-1,	-1,	-1,	24,	-1,	-1,	-1,	-1,	28|
16,	-1,	-1,	-1,	6,	-1,	-1,	-1,	-1,	-1,	-1,	10,	29,	-1,	-1,	11,	-1,	35,	-1,	26,	1,	-1,	-1,	-1,	25,	-1,	20,	8,	33,	-1,	-1,	31,	3,	-1,	22,	-1|
-1,	-1,	-1,	-1,	-1,	-1,	3,	-1,	15,	19,	16,	-1,	-1,	14,	-1,	-1,	-1,	27,	-1,	-1,	29,	-1,	-1,	6,	-1,	-1,	-1,	-1,	-1,	-1,	-1,	-1,	-1,	-1,	13,	-1|
-1,	-1,	29,	23,	-1,	-1,	-1,	-1,	-1,	-1,	14,	-1,	-1,	-1,	-1,	-1,	-1,	-1,	-1,	-1,	-1,	-1,	-1,	5,	-1,	18,	22,	-1,	34,	15,	-1,	12,	-1,	-1,	7,	-1|
2,	-1,	13,	-1,	35,	-1,	-1,	33,	19,	-1,	-1,	-1,	-1,	34,	-1,	-1,	-1,	-1,	-1,	-1,	-1,	-1,	-1,	-1,	-1,	-1,	23,	-1,	-1,	5,	-1,	24,	-1,	-1,	-1,	-1|
-1,	-1,	-1,	-1,	-1,	-1,	-1,	-1,	4,	-1,	-1,	-1,	17,	13,	-1,	24,	-1,	-1,	23,	18,	-1,	-1,	-1,	-1,	14,	27,	-1,	25,	-1,	-1,	36,	-1,	1,	-1,	28,	-1|
-1,	19,	-1,	-1,	26,	22,	13,	-1,	-1,	-1,	10,	5,	-1,	8,	21,	-1,	-1,	23,	33,	-1,	-1,	-1,	-1,	-1,	-1,	-1,	34,	-1,	11,	31,	-1,	-1,	-1,	9,	17,	-1|
-1,	-1,	-1,	-1,	-1,	-1,	-1,	-1,	-1,	9,	21,	3,	-1,	-1,	-1,	-1,	16,	-1,	-1,	-1,	30,	-1,	-1,	-1,	10,	12,	-1,	-1,	26,	-1,	11,	27,	-1,	-1,	2,	-1|
-1,	-1,	-1,	10,	-1,	-1,	-1,	11,	29,	7,	-1,	-1,	-1,	-1,	-1,	-1,	-1,	-1,	-1,	-1,	-1,	26,	-1,	-1,	-1,	16,	-1,	-1,	-1,	-1,	-1,	6,	-1,	31,	-1,	35|
-1,	11,	-1,	-1,	-1,	-1,	-1,	-1,	-1,	-1,	-1,	-1,	-1,	-1,	-1,	-1,	-1,	9,	-1,	-1,	-1,	15,	-1,	7,	33,	22,	-1,	-1,	-1,	-1,	-1,	-1,	4,	-1,	26,	12|
-1,	-1,	-1,	-1,	-1,	-1,	-1,	-1,	-1,	-1,	-1,	-1,	-1,	-1,	-1,	-1,	-1,	34,	-1,	-1,	-1,	32,	-1,	-1,	-1,	17,	-1,	14,	-1,	-1,	18,	8,	-1,	33,	15,	26|
-1,	-1,	11,	-1,	-1,	24,	-1,	-1,	-1,	-1,	-1,	26,	-1,	21,	1,	-1,	-1,	-1,	-1,	2,	-1,	19,	-1,	12,	31,	-1,	16,	32,	-1,	-1,	-1,	-1,	-1,	-1,	-1,	10|
-1,	-1,	1,	-1,	-1,	-1,	-1,	12,	-1,	20,	15,	-1,	-1,	-1,	-1,	22,	4,	-1,	-1,	33,	25,	-1,	14,	-1,	-1,	-1,	-1,	-1,	36,	-1,	-1,	-1,	-1,	-1,	-1,	-1|
26,	-1,	31,	32,	-1,	-1,	-1,	-1,	30,	-1,	-1,	-1,	-1,	24,	-1,	36,	-1,	15,	10,	13,	-1,	-1,	-1,	28,	-1,	-1,	1,	-1,	35,	4,	2,	23,	-1,	-1,	-1,	-1|
4,	35,	-1,	-1,	28,	-1,	34,	-1,	16,	-1,	-1,	-1,	3,	7,	20,	-1,	-1,	-1,	-1,	-1,	26,	30,	31,	17,	-1,	29,	-1,	-1,	-1,	24,	14,	25,	-1,	-1,	-1,	-1|
-1,	5,	-1,	-1,	-1,	-1,	22,	-1,	10,	-1,	25,	-1,	-1,	32,	-1,	33,	8,	-1,	-1,	16,	-1,	-1,	7,	-1,	-1,	-1,	13,	21,	-1,	-1,	-1,	30,	-1,	-1,	-1,	-1|];
